p cnf 10 12
a 7 8 0
e 2 0
a 1 3 4 6 9 0
e 5 10 0
3 -8 -1 6 7 -9 -10 -2 0
-4 3 1 -9 -8 -5 0
9 -2 5 10 0
-4 -8 6 -1 -3 -5 0
8 2 0
3 8 4 -1 -6 -9 -2 -10 0
4 -6 -8 3 -9 -2 10 -5 0
-10 -2 -5 0
-2 5 0
-6 -3 -10 0
6 2 -10 0
8 -1 -10 -2 5 0
